c Instancia generada aleatoriamente
p edge 40 197
e 1 2
e 1 4
e 1 9
e 1 16
e 1 19
e 1 21
e 1 25
e 1 26
e 1 27
e 1 38
e 2 3
e 2 11
e 2 15
e 2 20
e 2 22
e 2 27
e 2 30
e 2 31
e 2 33
e 2 35
e 2 38
e 3 4
e 3 8
e 3 15
e 3 27
e 3 30
e 3 36
e 3 39
e 4 6
e 4 12
e 4 13
e 4 15
e 4 16
e 4 22
e 4 24
e 4 27
e 4 29
e 4 30
e 4 35
e 4 40
e 5 8
e 5 12
e 5 18
e 5 19
e 5 22
e 5 28
e 5 32
e 5 37
e 5 38
e 6 8
e 6 19
e 6 27
e 6 31
e 6 33
e 6 34
e 6 37
e 7 10
e 7 13
e 7 14
e 7 16
e 7 23
e 7 28
e 7 40
e 8 10
e 8 12
e 8 15
e 8 16
e 8 19
e 8 20
e 8 21
e 8 28
e 8 39
e 9 12
e 9 14
e 9 18
e 9 19
e 9 20
e 9 26
e 9 27
e 9 28
e 9 29
e 9 34
e 9 35
e 9 37
e 9 39
e 10 11
e 10 14
e 10 27
e 10 28
e 10 34
e 11 16
e 11 18
e 11 29
e 11 30
e 11 33
e 11 34
e 11 35
e 11 38
e 11 40
e 12 19
e 12 21
e 12 22
e 12 31
e 12 32
e 12 38
e 13 22
e 13 25
e 13 26
e 13 33
e 13 34
e 14 17
e 14 18
e 14 24
e 14 26
e 14 27
e 14 37
e 15 17
e 15 21
e 15 23
e 15 28
e 15 31
e 15 35
e 15 36
e 16 21
e 16 23
e 16 24
e 17 18
e 17 24
e 17 26
e 17 28
e 17 36
e 17 37
e 17 38
e 17 39
e 18 25
e 18 31
e 18 33
e 18 39
e 19 22
e 19 26
e 19 27
e 19 29
e 19 30
e 20 27
e 20 29
e 20 36
e 20 38
e 20 40
e 21 30
e 21 40
e 22 23
e 22 30
e 22 31
e 22 33
e 22 34
e 23 30
e 23 32
e 23 33
e 23 34
e 23 35
e 23 36
e 23 38
e 24 25
e 24 33
e 24 36
e 24 38
e 25 30
e 25 35
e 26 29
e 26 31
e 26 39
e 27 28
e 27 31
e 27 36
e 27 38
e 27 39
e 28 31
e 28 32
e 28 34
e 28 36
e 28 37
e 29 30
e 30 32
e 31 33
e 31 34
e 31 36
e 31 37
e 31 40
e 32 34
e 32 39
e 33 35
e 33 37
e 33 38
e 33 39
e 35 38
e 37 39
e 38 39
